(set-logic QF_LRA)
(declare-fun fluent_robot_at_r0_p0@0 () Bool)
(declare-fun fluent_robot_at_r0_p1@0 () Bool)
(declare-fun fluent_robot_free_r0@0 () Bool)
(declare-fun fluent_pallet_at_plt0_p0@0 () Bool)
(declare-fun fluent_pallet_at_plt0_p1@0 () Bool)
(declare-fun fluent_battery_level_r0@0 () Real)
(declare-fun fluent_position_free_p0@0 () Bool)
(declare-fun fluent_position_free_p1@0 () Bool)
(declare-fun fluent_robot_has_r0_plt0@0 () Bool)
(declare-fun fluent_ready_plt0_p0_t0@0 () Bool)
(declare-fun fluent_ready_plt0_p1_t0@0 () Bool)
(declare-fun fluent_ready_plt0_p0_t1@0 () Bool)
(declare-fun fluent_ready_plt0_p1_t1@0 () Bool)
(declare-fun fluent_ready_plt0_p0_t2@0 () Bool)
(declare-fun fluent_ready_plt0_p1_t2@0 () Bool)
(declare-fun fluent_ready_plt0_p0_t3@0 () Bool)
(declare-fun fluent_ready_plt0_p1_t3@0 () Bool)
(declare-fun fluent_treated_plt0_t0@0 () Bool)
(declare-fun fluent_treated_plt0_t1@0 () Bool)
(declare-fun fluent_treated_plt0_t2@0 () Bool)
(declare-fun fluent_treated_plt0_t3@0 () Bool)
(declare-fun act_make_treatment@1 () Bool)
(declare-fun act_move@1 () Bool)
(declare-fun parameter_move_topos@1 () Real)
(declare-fun parameter_move_frompos@1 () Real)
(declare-fun parameter_move_r@1 () Real)
(declare-fun fluent_robot_at_r0_p0@1 () Bool)
(declare-fun fluent_robot_at_r0_p1@1 () Bool)
(declare-fun fluent_battery_level_r0@1 () Real)
(declare-fun act_load@1 () Bool)
(declare-fun parameter_load_t@1 () Real)
(declare-fun parameter_load_pos@1 () Real)
(declare-fun parameter_load_pallet@1 () Real)
(declare-fun parameter_load_r@1 () Real)
(declare-fun fluent_robot_free_r0@1 () Bool)
(declare-fun fluent_ready_plt0_p0_t0@1 () Bool)
(declare-fun fluent_ready_plt0_p1_t0@1 () Bool)
(declare-fun fluent_ready_plt0_p0_t1@1 () Bool)
(declare-fun fluent_ready_plt0_p1_t1@1 () Bool)
(declare-fun fluent_ready_plt0_p0_t2@1 () Bool)
(declare-fun fluent_ready_plt0_p1_t2@1 () Bool)
(declare-fun fluent_ready_plt0_p0_t3@1 () Bool)
(declare-fun fluent_ready_plt0_p1_t3@1 () Bool)
(declare-fun fluent_pallet_at_plt0_p0@1 () Bool)
(declare-fun fluent_pallet_at_plt0_p1@1 () Bool)
(declare-fun fluent_robot_has_r0_plt0@1 () Bool)
(declare-fun fluent_treated_plt0_t0@1 () Bool)
(declare-fun fluent_treated_plt0_t1@1 () Bool)
(declare-fun fluent_treated_plt0_t2@1 () Bool)
(declare-fun fluent_treated_plt0_t3@1 () Bool)
(declare-fun fluent_position_free_p0@1 () Bool)
(declare-fun fluent_position_free_p1@1 () Bool)
(declare-fun act_load_at_depot@1 () Bool)
(declare-fun parameter_load_at_depot_pos@1 () Real)
(declare-fun parameter_load_at_depot_r@1 () Real)
(declare-fun parameter_load_at_depot_pallet@1 () Real)
(declare-fun act_unload_at_depot@1 () Bool)
(declare-fun parameter_unload_at_depot_pos@1 () Real)
(declare-fun parameter_unload_at_depot_r@1 () Real)
(declare-fun parameter_unload_at_depot_pallet@1 () Real)
(declare-fun dur_make_treatment@1 () Real)
(declare-fun t@1 () Real)
(declare-fun parameter_make_treatment_t@1 () Real)
(declare-fun parameter_make_treatment_pallet@1 () Real)
(declare-fun parameter_make_treatment_r@1 () Real)
(declare-fun parameter_make_treatment_pos@1 () Real)
(assert (let ((.def_0 (= parameter_make_treatment_pos@1 2.0))) (let ((.def_1 (= parameter_make_treatment_pos@1 1.0))) (let ((.def_2 (or .def_1 .def_0))) (let ((.def_3 (= parameter_make_treatment_r@1 0.0))) (let ((.def_4 (= parameter_make_treatment_pallet@1 3.0))) (let ((.def_5 (= parameter_load_pallet@1 3.0))) (let ((.def_6 (= parameter_make_treatment_t@1 7.0))) (let ((.def_7 (= parameter_make_treatment_t@1 6.0))) (let ((.def_8 (= parameter_make_treatment_t@1 5.0))) (let ((.def_9 (= parameter_make_treatment_t@1 4.0))) (let ((.def_10 (or .def_9 .def_8 .def_7 .def_6))) (let ((.def_11 (= parameter_load_pos@1 2.0))) (let ((.def_12 (= parameter_load_pos@1 1.0))) (let ((.def_13 (or .def_12 .def_11))) (let ((.def_14 (= parameter_load_t@1 7.0))) (let ((.def_15 (= parameter_load_t@1 6.0))) (let ((.def_16 (= parameter_load_t@1 5.0))) (let ((.def_17 (= parameter_load_t@1 4.0))) (let ((.def_18 (or .def_17 .def_16 .def_15 .def_14))) (let ((.def_19 (<= fluent_battery_level_r0@1 100.0))) (let ((.def_20 (<= 0.0 fluent_battery_level_r0@1))) (let ((.def_21 (= parameter_unload_at_depot_pallet@1 3.0))) (let ((.def_22 (= parameter_unload_at_depot_r@1 0.0))) (let ((.def_23 (= parameter_unload_at_depot_pos@1 2.0))) (let ((.def_24 (= parameter_unload_at_depot_pos@1 1.0))) (let ((.def_25 (or .def_24 .def_23))) (let ((.def_26 (= parameter_move_r@1 0.0))) (let ((.def_27 (= parameter_move_frompos@1 2.0))) (let ((.def_28 (= parameter_move_frompos@1 1.0))) (let ((.def_29 (or .def_28 .def_27))) (let ((.def_30 (= parameter_move_topos@1 2.0))) (let ((.def_31 (= parameter_move_topos@1 1.0))) (let ((.def_32 (or .def_31 .def_30))) (let ((.def_33 (= parameter_load_at_depot_pallet@1 3.0))) (let ((.def_34 (= parameter_load_at_depot_r@1 0.0))) (let ((.def_35 (= parameter_load_at_depot_pos@1 2.0))) (let ((.def_36 (= parameter_load_at_depot_pos@1 1.0))) (let ((.def_37 (or .def_36 .def_35))) (let ((.def_38 (= parameter_load_r@1 0.0))) (let ((.def_39 (and act_move@1 true .def_26))) (let ((.def_40 (= fluent_battery_level_r0@0 fluent_battery_level_r0@1))) (let ((.def_41 (not .def_40))) (let ((.def_42 (=> .def_41 .def_39))) (let ((.def_43 (and act_make_treatment@1 true .def_4 .def_0))) (let ((.def_44 (and act_unload_at_depot@1 true .def_21 .def_23))) (let ((.def_45 (and .def_44 .def_43))) (let ((.def_46 (not .def_45))) (let ((.def_47 (and act_load_at_depot@1 true .def_33 .def_35))) (let ((.def_48 (and .def_47 .def_43))) (let ((.def_49 (not .def_48))) (let ((.def_50 (and .def_47 .def_44))) (let ((.def_51 (not .def_50))) (let ((.def_52 (and act_load@1 true .def_5 .def_11))) (let ((.def_53 (and .def_52 .def_43))) (let ((.def_54 (not .def_53))) (let ((.def_55 (and .def_52 .def_44))) (let ((.def_56 (not .def_55))) (let ((.def_57 (and .def_52 .def_47))) (let ((.def_58 (not .def_57))) (let ((.def_59 (or .def_52 .def_47 .def_44 .def_43))) (let ((.def_60 (= fluent_pallet_at_plt0_p1@0 fluent_pallet_at_plt0_p1@1))) (let ((.def_61 (not .def_60))) (let ((.def_62 (=> .def_61 .def_59))) (let ((.def_63 (and act_make_treatment@1 true .def_4 .def_1))) (let ((.def_64 (and act_unload_at_depot@1 true .def_21 .def_24))) (let ((.def_65 (and .def_64 .def_63))) (let ((.def_66 (not .def_65))) (let ((.def_67 (and act_load_at_depot@1 true .def_33 .def_36))) (let ((.def_68 (and .def_67 .def_63))) (let ((.def_69 (not .def_68))) (let ((.def_70 (and .def_67 .def_64))) (let ((.def_71 (not .def_70))) (let ((.def_72 (and act_load@1 true .def_5 .def_12))) (let ((.def_73 (and .def_72 .def_63))) (let ((.def_74 (not .def_73))) (let ((.def_75 (and .def_72 .def_64))) (let ((.def_76 (not .def_75))) (let ((.def_77 (and .def_72 .def_67))) (let ((.def_78 (not .def_77))) (let ((.def_79 (or .def_72 .def_67 .def_64 .def_63))) (let ((.def_80 (= fluent_pallet_at_plt0_p0@0 fluent_pallet_at_plt0_p0@1))) (let ((.def_81 (not .def_80))) (let ((.def_82 (=> .def_81 .def_79))) (let ((.def_83 (and act_load@1 true .def_5 .def_14))) (let ((.def_84 (= fluent_treated_plt0_t3@0 fluent_treated_plt0_t3@1))) (let ((.def_85 (not .def_84))) (let ((.def_86 (=> .def_85 .def_83))) (let ((.def_87 (and act_load@1 true .def_5 .def_15))) (let ((.def_88 (= fluent_treated_plt0_t2@0 fluent_treated_plt0_t2@1))) (let ((.def_89 (not .def_88))) (let ((.def_90 (=> .def_89 .def_87))) (let ((.def_91 (and act_load@1 true .def_5 .def_16))) (let ((.def_92 (= fluent_treated_plt0_t1@0 fluent_treated_plt0_t1@1))) (let ((.def_93 (not .def_92))) (let ((.def_94 (=> .def_93 .def_91))) (let ((.def_95 (and act_load@1 true .def_5 .def_17))) (let ((.def_96 (= fluent_treated_plt0_t0@0 fluent_treated_plt0_t0@1))) (let ((.def_97 (not .def_96))) (let ((.def_98 (=> .def_97 .def_95))) (let ((.def_99 (and act_make_treatment@1 true .def_0))) (let ((.def_100 (and act_load@1 true .def_11))) (let ((.def_101 (and .def_100 .def_99))) (let ((.def_102 (not .def_101))) (let ((.def_103 (or .def_100 .def_99))) (let ((.def_104 (= fluent_position_free_p1@0 fluent_position_free_p1@1))) (let ((.def_105 (not .def_104))) (let ((.def_106 (=> .def_105 .def_103))) (let ((.def_107 (and act_make_treatment@1 true .def_1))) (let ((.def_108 (and act_load@1 true .def_12))) (let ((.def_109 (and .def_108 .def_107))) (let ((.def_110 (not .def_109))) (let ((.def_111 (or .def_108 .def_107))) (let ((.def_112 (= fluent_position_free_p0@0 fluent_position_free_p0@1))) (let ((.def_113 (not .def_112))) (let ((.def_114 (=> .def_113 .def_111))) (let ((.def_115 (+ t@1 10.0))) (let ((.def_116 (= t@1 .def_115))) (let ((.def_117 (and act_make_treatment@1 true .def_116 .def_4 .def_0 .def_6))) (let ((.def_118 (and act_load@1 true .def_5 .def_11 .def_14))) (let ((.def_119 (and .def_118 .def_117))) (let ((.def_120 (not .def_119))) (let ((.def_121 (or .def_118 .def_117))) (let ((.def_122 (= fluent_ready_plt0_p1_t3@0 fluent_ready_plt0_p1_t3@1))) (let ((.def_123 (not .def_122))) (let ((.def_124 (=> .def_123 .def_121))) (let ((.def_125 (and act_make_treatment@1 true .def_116 .def_4 .def_1 .def_6))) (let ((.def_126 (and act_load@1 true .def_5 .def_12 .def_14))) (let ((.def_127 (and .def_126 .def_125))) (let ((.def_128 (not .def_127))) (let ((.def_129 (or .def_126 .def_125))) (let ((.def_130 (= fluent_ready_plt0_p0_t3@0 fluent_ready_plt0_p0_t3@1))) (let ((.def_131 (not .def_130))) (let ((.def_132 (=> .def_131 .def_129))) (let ((.def_133 (and act_make_treatment@1 true .def_116 .def_4 .def_0 .def_7))) (let ((.def_134 (and act_load@1 true .def_5 .def_11 .def_15))) (let ((.def_135 (and .def_134 .def_133))) (let ((.def_136 (not .def_135))) (let ((.def_137 (or .def_134 .def_133))) (let ((.def_138 (= fluent_ready_plt0_p1_t2@0 fluent_ready_plt0_p1_t2@1))) (let ((.def_139 (not .def_138))) (let ((.def_140 (=> .def_139 .def_137))) (let ((.def_141 (and act_make_treatment@1 true .def_116 .def_4 .def_1 .def_7))) (let ((.def_142 (and act_load@1 true .def_5 .def_12 .def_15))) (let ((.def_143 (and .def_142 .def_141))) (let ((.def_144 (not .def_143))) (let ((.def_145 (or .def_142 .def_141))) (let ((.def_146 (= fluent_ready_plt0_p0_t2@0 fluent_ready_plt0_p0_t2@1))) (let ((.def_147 (not .def_146))) (let ((.def_148 (=> .def_147 .def_145))) (let ((.def_149 (and act_make_treatment@1 true .def_116 .def_4 .def_0 .def_8))) (let ((.def_150 (and act_load@1 true .def_5 .def_11 .def_16))) (let ((.def_151 (and .def_150 .def_149))) (let ((.def_152 (not .def_151))) (let ((.def_153 (or .def_150 .def_149))) (let ((.def_154 (= fluent_ready_plt0_p1_t1@0 fluent_ready_plt0_p1_t1@1))) (let ((.def_155 (not .def_154))) (let ((.def_156 (=> .def_155 .def_153))) (let ((.def_157 (and act_make_treatment@1 true .def_116 .def_4 .def_1 .def_8))) (let ((.def_158 (and act_load@1 true .def_5 .def_12 .def_16))) (let ((.def_159 (and .def_158 .def_157))) (let ((.def_160 (not .def_159))) (let ((.def_161 (or .def_158 .def_157))) (let ((.def_162 (= fluent_ready_plt0_p0_t1@0 fluent_ready_plt0_p0_t1@1))) (let ((.def_163 (not .def_162))) (let ((.def_164 (=> .def_163 .def_161))) (let ((.def_165 (and act_make_treatment@1 true .def_116 .def_4 .def_0 .def_9))) (let ((.def_166 (and act_load@1 true .def_5 .def_11 .def_17))) (let ((.def_167 (and .def_166 .def_165))) (let ((.def_168 (not .def_167))) (let ((.def_169 (or .def_166 .def_165))) (let ((.def_170 (= fluent_ready_plt0_p1_t0@0 fluent_ready_plt0_p1_t0@1))) (let ((.def_171 (not .def_170))) (let ((.def_172 (=> .def_171 .def_169))) (let ((.def_173 (and act_make_treatment@1 true .def_116 .def_4 .def_1 .def_9))) (let ((.def_174 (and act_load@1 true .def_5 .def_12 .def_17))) (let ((.def_175 (and .def_174 .def_173))) (let ((.def_176 (not .def_175))) (let ((.def_177 (or .def_174 .def_173))) (let ((.def_178 (= fluent_ready_plt0_p0_t0@0 fluent_ready_plt0_p0_t0@1))) (let ((.def_179 (not .def_178))) (let ((.def_180 (=> .def_179 .def_177))) (let ((.def_181 (and act_make_treatment@1 true .def_3 .def_4))) (let ((.def_182 (and act_unload_at_depot@1 true .def_22 .def_21))) (let ((.def_183 (and .def_182 .def_181))) (let ((.def_184 (not .def_183))) (let ((.def_185 (and act_load_at_depot@1 true .def_34 .def_33))) (let ((.def_186 (and .def_185 .def_181))) (let ((.def_187 (not .def_186))) (let ((.def_188 (and .def_185 .def_182))) (let ((.def_189 (not .def_188))) (let ((.def_190 (and act_load@1 true .def_38 .def_5))) (let ((.def_191 (and .def_190 .def_181))) (let ((.def_192 (not .def_191))) (let ((.def_193 (and .def_190 .def_182))) (let ((.def_194 (not .def_193))) (let ((.def_195 (and .def_190 .def_185))) (let ((.def_196 (not .def_195))) (let ((.def_197 (or .def_190 .def_185 .def_182 .def_181))) (let ((.def_198 (= fluent_robot_has_r0_plt0@0 fluent_robot_has_r0_plt0@1))) (let ((.def_199 (not .def_198))) (let ((.def_200 (=> .def_199 .def_197))) (let ((.def_201 (and act_make_treatment@1 true .def_3))) (let ((.def_202 (and act_unload_at_depot@1 true .def_22))) (let ((.def_203 (and .def_202 .def_201))) (let ((.def_204 (not .def_203))) (let ((.def_205 (and act_load_at_depot@1 true .def_34))) (let ((.def_206 (and .def_205 .def_201))) (let ((.def_207 (not .def_206))) (let ((.def_208 (and .def_205 .def_202))) (let ((.def_209 (not .def_208))) (let ((.def_210 (and act_load@1 true .def_38))) (let ((.def_211 (and .def_210 .def_201))) (let ((.def_212 (not .def_211))) (let ((.def_213 (and .def_210 .def_202))) (let ((.def_214 (not .def_213))) (let ((.def_215 (and .def_210 .def_205))) (let ((.def_216 (not .def_215))) (let ((.def_217 (or .def_210 .def_205 .def_202 .def_201))) (let ((.def_218 (= fluent_robot_free_r0@0 fluent_robot_free_r0@1))) (let ((.def_219 (not .def_218))) (let ((.def_220 (=> .def_219 .def_217))) (let ((.def_221 (and act_move@1 true .def_26 .def_27))) (let ((.def_222 (and act_move@1 true .def_26 .def_30))) (let ((.def_223 (and .def_222 .def_221))) (let ((.def_224 (not .def_223))) (let ((.def_225 (or .def_222 .def_221))) (let ((.def_226 (= fluent_robot_at_r0_p1@0 fluent_robot_at_r0_p1@1))) (let ((.def_227 (not .def_226))) (let ((.def_228 (=> .def_227 .def_225))) (let ((.def_229 (and act_move@1 true .def_26 .def_28))) (let ((.def_230 (and act_move@1 true .def_26 .def_31))) (let ((.def_231 (and .def_230 .def_229))) (let ((.def_232 (not .def_231))) (let ((.def_233 (or .def_230 .def_229))) (let ((.def_234 (= fluent_robot_at_r0_p0@0 fluent_robot_at_r0_p0@1))) (let ((.def_235 (not .def_234))) (let ((.def_236 (=> .def_235 .def_233))) (let ((.def_237 (and .def_236 .def_232 .def_228 .def_224 .def_220 .def_216 .def_214 .def_212 .def_209 .def_207 .def_204 .def_200 .def_196 .def_194 .def_192 .def_189 .def_187 .def_184 .def_180 .def_176 .def_172 .def_168 .def_164 .def_160 .def_156 .def_152 .def_148 .def_144 .def_140 .def_136 .def_132 .def_128 .def_124 .def_120 .def_114 .def_110 .def_106 .def_102 .def_98 .def_94 .def_90 .def_86 .def_82 .def_78 .def_76 .def_74 .def_71 .def_69 .def_66 .def_62 .def_58 .def_56 .def_54 .def_51 .def_49 .def_46 .def_42))) (let ((.def_238 (= t@1 t@1))) (let ((.def_239 (and act_load@1 act_make_treatment@1 .def_238))) (let ((.def_240 (not .def_239))) (let ((.def_241 (and act_move@1 act_unload_at_depot@1 .def_238))) (let ((.def_242 (not .def_241))) (let ((.def_243 (and act_move@1 act_load_at_depot@1 .def_238))) (let ((.def_244 (not .def_243))) (let ((.def_245 (and act_load_at_depot@1 act_make_treatment@1 .def_238))) (let ((.def_246 (not .def_245))) (let ((.def_247 (and act_unload_at_depot@1 act_load@1 .def_238))) (let ((.def_248 (not .def_247))) (let ((.def_249 (and act_move@1 act_make_treatment@1 .def_238))) (let ((.def_250 (not .def_249))) (let ((.def_251 (+ t@1 dur_make_treatment@1))) (let ((.def_252 (= .def_251 t@1))) (let ((.def_253 (and act_make_treatment@1 act_load@1 .def_252))) (let ((.def_254 (not .def_253))) (let ((.def_255 (= .def_115 t@1))) (let ((.def_256 (and act_make_treatment@1 act_load@1 .def_255))) (let ((.def_257 (not .def_256))) (let ((.def_258 (and act_load_at_depot@1 act_unload_at_depot@1 .def_238))) (let ((.def_259 (not .def_258))) (let ((.def_260 (and act_load_at_depot@1 act_load@1 .def_238))) (let ((.def_261 (not .def_260))) (let ((.def_262 (and act_move@1 act_load@1 .def_238))) (let ((.def_263 (not .def_262))) (let ((.def_264 (and act_unload_at_depot@1 act_make_treatment@1 .def_238))) (let ((.def_265 (not .def_264))) (let ((.def_266 (and .def_265 .def_263 .def_261 .def_259 .def_257 .def_254 .def_250 .def_248 .def_246 .def_244 .def_242 .def_240))) (let ((.def_267 (<= 0.0 t@1))) (let ((.def_268 (and .def_4 .def_0 .def_9))) (let ((.def_269 (ite .def_268 fluent_ready_plt0_p1_t0@1 fluent_ready_plt0_p0_t0@1))) (let ((.def_270 (and .def_4 .def_1 .def_8))) (let ((.def_271 (ite .def_270 fluent_ready_plt0_p0_t1@1 .def_269))) (let ((.def_272 (and .def_4 .def_0 .def_8))) (let ((.def_273 (ite .def_272 fluent_ready_plt0_p1_t1@1 .def_271))) (let ((.def_274 (and .def_4 .def_1 .def_7))) (let ((.def_275 (ite .def_274 fluent_ready_plt0_p0_t2@1 .def_273))) (let ((.def_276 (and .def_4 .def_0 .def_7))) (let ((.def_277 (ite .def_276 fluent_ready_plt0_p1_t2@1 .def_275))) (let ((.def_278 (and .def_4 .def_1 .def_6))) (let ((.def_279 (ite .def_278 fluent_ready_plt0_p0_t3@1 .def_277))) (let ((.def_280 (and .def_4 .def_0 .def_6))) (let ((.def_281 (ite .def_280 fluent_ready_plt0_p1_t3@1 .def_279))) (let ((.def_282 (= .def_281 true))) (let ((.def_283 (=> true .def_282))) (let ((.def_284 (and .def_116 .def_283))) (let ((.def_285 (= fluent_robot_free_r0@1 true))) (let ((.def_286 (=> true .def_285))) (let ((.def_287 (and .def_4 .def_0))) (let ((.def_288 (ite .def_287 fluent_pallet_at_plt0_p1@1 fluent_pallet_at_plt0_p0@1))) (let ((.def_289 (= .def_288 true))) (let ((.def_290 (=> true .def_289))) (let ((.def_291 (= fluent_robot_has_r0_plt0@1 false))) (let ((.def_292 (=> true .def_291))) (let ((.def_293 (ite .def_0 fluent_position_free_p1@1 fluent_position_free_p0@1))) (let ((.def_294 (= .def_293 false))) (let ((.def_295 (=> true .def_294))) (let ((.def_296 (and .def_238 .def_295 .def_292 .def_290 .def_286))) (let ((.def_297 (ite .def_0 fluent_position_free_p1@0 fluent_position_free_p0@0))) (let ((.def_298 (and .def_4 .def_8))) (let ((.def_299 (ite .def_298 fluent_treated_plt0_t1@0 fluent_treated_plt0_t0@0))) (let ((.def_300 (and .def_4 .def_7))) (let ((.def_301 (ite .def_300 fluent_treated_plt0_t2@0 .def_299))) (let ((.def_302 (and .def_4 .def_6))) (let ((.def_303 (ite .def_302 fluent_treated_plt0_t3@0 .def_301))) (let ((.def_304 (and .def_303 .def_297))) (let ((.def_305 (<= .def_251 t@1))) (let ((.def_306 (< (- 1.0) .def_251))) (let ((.def_307 (and .def_306 .def_305))) (let ((.def_308 (=> .def_307 .def_304))) (let ((.def_309 (not .def_303))) (let ((.def_310 (and .def_3 .def_0))) (let ((.def_311 (ite .def_310 fluent_robot_at_r0_p1@0 fluent_robot_at_r0_p0@0))) (let ((.def_312 (and .def_0 .def_9))) (let ((.def_313 (ite .def_312 false true))) (let ((.def_314 (and .def_1 .def_8))) (let ((.def_315 (ite .def_314 true .def_313))) (let ((.def_316 (and .def_0 .def_8))) (let ((.def_317 (ite .def_316 false .def_315))) (let ((.def_318 (and .def_1 .def_7))) (let ((.def_319 (ite .def_318 true .def_317))) (let ((.def_320 (and .def_0 .def_7))) (let ((.def_321 (ite .def_320 false .def_319))) (let ((.def_322 (and .def_1 .def_6))) (let ((.def_323 (ite .def_322 true .def_321))) (let ((.def_324 (and .def_0 .def_6))) (let ((.def_325 (ite .def_324 false .def_323))) (let ((.def_326 (and .def_325 .def_297 .def_311 fluent_robot_has_r0_plt0@0 .def_309))) (let ((.def_327 (<= t@1 t@1))) (let ((.def_328 (< (- 1.0) t@1))) (let ((.def_329 (and .def_328 .def_327))) (let ((.def_330 (=> .def_329 .def_326))) (let ((.def_331 (<= dur_make_treatment@1 20.0))) (let ((.def_332 (<= 20.0 dur_make_treatment@1))) (let ((.def_333 (and .def_332 .def_331))) (let ((.def_334 (and .def_333 .def_305 .def_330 .def_308 .def_296 .def_284))) (let ((.def_335 (=> act_make_treatment@1 .def_334))) (let ((.def_336 (and .def_21 .def_23))) (let ((.def_337 (ite .def_336 fluent_pallet_at_plt0_p1@1 fluent_pallet_at_plt0_p0@1))) (let ((.def_338 (= .def_337 true))) (let ((.def_339 (=> true .def_338))) (let ((.def_340 (and .def_22 .def_23))) (let ((.def_341 (ite .def_340 fluent_robot_at_r0_p1@0 fluent_robot_at_r0_p0@0))) (let ((.def_342 (ite .def_23 true false))) (let ((.def_343 (and .def_342 .def_341 fluent_robot_has_r0_plt0@0 .def_339 .def_286 .def_292))) (let ((.def_344 (=> act_unload_at_depot@1 .def_343))) (let ((.def_345 (and .def_33 .def_35))) (let ((.def_346 (ite .def_345 fluent_pallet_at_plt0_p1@1 fluent_pallet_at_plt0_p0@1))) (let ((.def_347 (= .def_346 false))) (let ((.def_348 (=> true .def_347))) (let ((.def_349 (= fluent_robot_has_r0_plt0@1 true))) (let ((.def_350 (=> true .def_349))) (let ((.def_351 (= fluent_robot_free_r0@1 false))) (let ((.def_352 (=> true .def_351))) (let ((.def_353 (ite .def_345 fluent_pallet_at_plt0_p1@0 fluent_pallet_at_plt0_p0@0))) (let ((.def_354 (and .def_34 .def_35))) (let ((.def_355 (ite .def_354 fluent_robot_at_r0_p1@0 fluent_robot_at_r0_p0@0))) (let ((.def_356 (ite .def_35 true false))) (let ((.def_357 (and .def_356 .def_355 fluent_robot_free_r0@0 .def_353 .def_352 .def_350 .def_348))) (let ((.def_358 (=> act_load_at_depot@1 .def_357))) (let ((.def_359 (ite .def_11 fluent_position_free_p1@1 fluent_position_free_p0@1))) (let ((.def_360 (= .def_359 true))) (let ((.def_361 (=> true .def_360))) (let ((.def_362 (and .def_5 .def_16))) (let ((.def_363 (ite .def_362 fluent_treated_plt0_t1@1 fluent_treated_plt0_t0@1))) (let ((.def_364 (and .def_5 .def_15))) (let ((.def_365 (ite .def_364 fluent_treated_plt0_t2@1 .def_363))) (let ((.def_366 (and .def_5 .def_14))) (let ((.def_367 (ite .def_366 fluent_treated_plt0_t3@1 .def_365))) (let ((.def_368 (= .def_367 true))) (let ((.def_369 (=> true .def_368))) (let ((.def_370 (and .def_5 .def_11))) (let ((.def_371 (ite .def_370 fluent_pallet_at_plt0_p1@1 fluent_pallet_at_plt0_p0@1))) (let ((.def_372 (= .def_371 false))) (let ((.def_373 (=> true .def_372))) (let ((.def_374 (and .def_5 .def_11 .def_17))) (let ((.def_375 (ite .def_374 fluent_ready_plt0_p1_t0@1 fluent_ready_plt0_p0_t0@1))) (let ((.def_376 (and .def_5 .def_12 .def_16))) (let ((.def_377 (ite .def_376 fluent_ready_plt0_p0_t1@1 .def_375))) (let ((.def_378 (and .def_5 .def_11 .def_16))) (let ((.def_379 (ite .def_378 fluent_ready_plt0_p1_t1@1 .def_377))) (let ((.def_380 (and .def_5 .def_12 .def_15))) (let ((.def_381 (ite .def_380 fluent_ready_plt0_p0_t2@1 .def_379))) (let ((.def_382 (and .def_5 .def_11 .def_15))) (let ((.def_383 (ite .def_382 fluent_ready_plt0_p1_t2@1 .def_381))) (let ((.def_384 (and .def_5 .def_12 .def_14))) (let ((.def_385 (ite .def_384 fluent_ready_plt0_p0_t3@1 .def_383))) (let ((.def_386 (and .def_5 .def_11 .def_14))) (let ((.def_387 (ite .def_386 fluent_ready_plt0_p1_t3@1 .def_385))) (let ((.def_388 (= .def_387 false))) (let ((.def_389 (=> true .def_388))) (let ((.def_390 (ite .def_370 fluent_pallet_at_plt0_p1@0 fluent_pallet_at_plt0_p0@0))) (let ((.def_391 (and .def_38 .def_11))) (let ((.def_392 (ite .def_391 fluent_robot_at_r0_p1@0 fluent_robot_at_r0_p0@0))) (let ((.def_393 (ite .def_374 fluent_ready_plt0_p1_t0@0 fluent_ready_plt0_p0_t0@0))) (let ((.def_394 (ite .def_376 fluent_ready_plt0_p0_t1@0 .def_393))) (let ((.def_395 (ite .def_378 fluent_ready_plt0_p1_t1@0 .def_394))) (let ((.def_396 (ite .def_380 fluent_ready_plt0_p0_t2@0 .def_395))) (let ((.def_397 (ite .def_382 fluent_ready_plt0_p1_t2@0 .def_396))) (let ((.def_398 (ite .def_384 fluent_ready_plt0_p0_t3@0 .def_397))) (let ((.def_399 (ite .def_386 fluent_ready_plt0_p1_t3@0 .def_398))) (let ((.def_400 (and .def_399 .def_392 fluent_robot_free_r0@0 .def_390 .def_352 .def_389 .def_373 .def_350 .def_369 .def_361))) (let ((.def_401 (=> act_load@1 .def_400))) (let ((.def_402 (and .def_27 .def_31))) (let ((.def_403 (ite .def_402 1.0 0.0))) (let ((.def_404 (and .def_28 .def_30))) (let ((.def_405 (ite .def_404 1.0 .def_403))) (let ((.def_406 (and .def_27 .def_30))) (let ((.def_407 (ite .def_406 0.0 .def_405))) (let ((.def_408 (- fluent_battery_level_r0@0 .def_407))) (let ((.def_409 (= fluent_battery_level_r0@1 .def_408))) (let ((.def_410 (=> true .def_409))) (let ((.def_411 (and .def_26 .def_27))) (let ((.def_412 (ite .def_411 fluent_robot_at_r0_p1@1 fluent_robot_at_r0_p0@1))) (let ((.def_413 (= .def_412 false))) (let ((.def_414 (=> true .def_413))) (let ((.def_415 (and .def_26 .def_30))) (let ((.def_416 (ite .def_415 fluent_robot_at_r0_p1@1 fluent_robot_at_r0_p0@1))) (let ((.def_417 (= .def_416 true))) (let ((.def_418 (=> true .def_417))) (let ((.def_419 (<= .def_407 fluent_battery_level_r0@0))) (let ((.def_420 (ite .def_411 fluent_robot_at_r0_p1@0 fluent_robot_at_r0_p0@0))) (let ((.def_421 (= parameter_move_frompos@1 parameter_move_topos@1))) (let ((.def_422 (not .def_421))) (let ((.def_423 (and .def_422 .def_420 .def_419 .def_418 .def_414 .def_410))) (let ((.def_424 (=> act_move@1 .def_423))) (let ((.def_425 (<= 0.0 fluent_battery_level_r0@0))) (let ((.def_426 (<= fluent_battery_level_r0@0 100.0))) (let ((.def_427 (= false false))) (let ((.def_428 (= fluent_pallet_at_plt0_p0@0 false))) (let ((.def_429 (= fluent_treated_plt0_t3@0 false))) (let ((.def_430 (= fluent_treated_plt0_t2@0 false))) (let ((.def_431 (= fluent_treated_plt0_t1@0 false))) (let ((.def_432 (= fluent_treated_plt0_t0@0 false))) (let ((.def_433 (= fluent_ready_plt0_p1_t3@0 false))) (let ((.def_434 (= fluent_ready_plt0_p0_t3@0 false))) (let ((.def_435 (= fluent_ready_plt0_p1_t2@0 false))) (let ((.def_436 (= fluent_ready_plt0_p0_t2@0 false))) (let ((.def_437 (= fluent_ready_plt0_p1_t1@0 false))) (let ((.def_438 (= fluent_ready_plt0_p0_t1@0 false))) (let ((.def_439 (= fluent_ready_plt0_p1_t0@0 false))) (let ((.def_440 (= fluent_ready_plt0_p0_t0@0 false))) (let ((.def_441 (= fluent_robot_has_r0_plt0@0 false))) (let ((.def_442 (= fluent_robot_at_r0_p0@0 false))) (let ((.def_443 (= true true))) (let ((.def_444 (= fluent_position_free_p1@0 true))) (let ((.def_445 (= fluent_position_free_p0@0 true))) (let ((.def_446 (= 0.0 0.0))) (let ((.def_447 (= 1.0 1.0))) (let ((.def_448 (= fluent_battery_level_r0@0 4.0))) (let ((.def_449 (= fluent_pallet_at_plt0_p1@0 true))) (let ((.def_450 (= fluent_robot_free_r0@0 true))) (let ((.def_451 (= fluent_robot_at_r0_p1@0 true))) (let ((.def_452 (and .def_451 .def_450 .def_449 .def_448 .def_446 .def_447 .def_447 .def_446 .def_443 .def_445 .def_444 .def_443 .def_443 .def_443 .def_443 .def_442 .def_441 .def_440 .def_439 .def_438 .def_437 .def_436 .def_435 .def_434 .def_433 .def_432 .def_431 .def_430 .def_429 .def_428 .def_427 .def_427 .def_427 .def_427 .def_427 .def_426 .def_425))) (let ((.def_453 (and .def_452 .def_424 .def_401 .def_358 .def_344 .def_335 .def_267 .def_266 true .def_237 .def_38 .def_37 .def_34 .def_33 .def_32 .def_29 .def_26 .def_25 .def_22 .def_21 .def_20 .def_19 .def_18 .def_13 .def_10 .def_5 .def_4 .def_3 .def_2 true))) .def_453)))))))))))))))))))))))))))))))))))))))))))))))))))))))))))))))))))))))))))))))))))))))))))))))))))))))))))))))))))))))))))))))))))))))))))))))))))))))))))))))))))))))))))))))))))))))))))))))))))))))))))))))))))))))))))))))))))))))))))))))))))))))))))))))))))))))))))))))))))))))))))))))))))))))))))))))))))))))))))))))))))))))))))))))))))))))))))))))))))))))))))))))))))))))))))))))))))))))))))))))))))))))))))))))))))))))))))))))))))))))))))))))))))))))
(check-sat)


